g9 0 1 0 42 20130207 0 4 0 240	# problem haldmads
 6 42 1 0 0	# vars, constraints, objectives, ranges, eqns
 40 0	# nonlinear constraints, objectives
 0 0	# network constraints: nonlinear, linear
 5 0 0	# nonlinear vars in constraints, objectives, both
 0 0 0 1	# linear network variables; functions; arith, flags
 0 0 0 0 0	# discrete variables: binary, integer, nonlinear (b,c,o)
 244 1	# nonzeros in Jacobian, gradients
 0 0	# max name lengths: constraints, variables
 0 0 0 0 0	# common exprs: b,c,o,c1,o1
C0	#cons1[1]
o3	#/
o0	# + 
v0	#x[1]
o16	#-
v1	#x[2]
o54	#sumlist
4
n1
o16	#-
v2	#x[3]
v3	#x[4]
o16	#-
v4	#x[5]
C1	#cons1[2]
o3	#/
o0	# + 
v0	#x[1]
o2	#*
n-0.9
v1	#x[2]
o54	#sumlist
4
n1
o2	#*
n-0.9
v2	#x[3]
o2	#*
n0.81
v3	#x[4]
o2	#*
n-0.7290000000000001
v4	#x[5]
C2	#cons1[3]
o3	#/
o0	# + 
v0	#x[1]
o2	#*
n-0.8
v1	#x[2]
o54	#sumlist
4
n1
o2	#*
n-0.8
v2	#x[3]
o2	#*
n0.6400000000000001
v3	#x[4]
o2	#*
n-0.5120000000000001
v4	#x[5]
C3	#cons1[4]
o3	#/
o0	# + 
v0	#x[1]
o2	#*
n-0.7
v1	#x[2]
o54	#sumlist
4
n1
o2	#*
n-0.7
v2	#x[3]
o2	#*
n0.48999999999999994
v3	#x[4]
o2	#*
n-0.3429999999999999
v4	#x[5]
C4	#cons1[5]
o3	#/
o0	# + 
v0	#x[1]
o2	#*
n-0.6
v1	#x[2]
o54	#sumlist
4
n1
o2	#*
n-0.6
v2	#x[3]
o2	#*
n0.36
v3	#x[4]
o2	#*
n-0.216
v4	#x[5]
C5	#cons1[6]
o3	#/
o0	# + 
v0	#x[1]
o2	#*
n-0.5
v1	#x[2]
o54	#sumlist
4
n1
o2	#*
n-0.5
v2	#x[3]
o2	#*
n0.25
v3	#x[4]
o2	#*
n-0.125
v4	#x[5]
C6	#cons1[7]
o3	#/
o0	# + 
v0	#x[1]
o2	#*
n-0.3999999999999999
v1	#x[2]
o54	#sumlist
4
n1
o2	#*
n-0.3999999999999999
v2	#x[3]
o2	#*
n0.15999999999999992
v3	#x[4]
o2	#*
n-0.06399999999999996
v4	#x[5]
C7	#cons1[8]
o3	#/
o0	# + 
v0	#x[1]
o2	#*
n-0.29999999999999993
v1	#x[2]
o54	#sumlist
4
n1
o2	#*
n-0.29999999999999993
v2	#x[3]
o2	#*
n0.08999999999999996
v3	#x[4]
o2	#*
n-0.02699999999999998
v4	#x[5]
C8	#cons1[9]
o3	#/
o0	# + 
v0	#x[1]
o2	#*
n-0.19999999999999996
v1	#x[2]
o54	#sumlist
4
n1
o2	#*
n-0.19999999999999996
v2	#x[3]
o2	#*
n0.03999999999999998
v3	#x[4]
o2	#*
n-0.007999999999999995
v4	#x[5]
C9	#cons1[10]
o3	#/
o0	# + 
v0	#x[1]
o2	#*
n-0.09999999999999998
v1	#x[2]
o54	#sumlist
4
n1
o2	#*
n-0.09999999999999998
v2	#x[3]
o2	#*
n0.009999999999999995
v3	#x[4]
o2	#*
n-0.0009999999999999994
v4	#x[5]
C10	#cons1[12]
o3	#/
o0	# + 
v0	#x[1]
o2	#*
n0.10000000000000009
v1	#x[2]
o54	#sumlist
4
n1
o2	#*
n0.10000000000000009
v2	#x[3]
o2	#*
n0.010000000000000018
v3	#x[4]
o2	#*
n0.0010000000000000026
v4	#x[5]
C11	#cons1[13]
o3	#/
o0	# + 
v0	#x[1]
o2	#*
n0.20000000000000018
v1	#x[2]
o54	#sumlist
4
n1
o2	#*
n0.20000000000000018
v2	#x[3]
o2	#*
n0.04000000000000007
v3	#x[4]
o2	#*
n0.008000000000000021
v4	#x[5]
C12	#cons1[14]
o3	#/
o0	# + 
v0	#x[1]
o2	#*
n0.30000000000000004
v1	#x[2]
o54	#sumlist
4
n1
o2	#*
n0.30000000000000004
v2	#x[3]
o2	#*
n0.09000000000000002
v3	#x[4]
o2	#*
n0.02700000000000001
v4	#x[5]
C13	#cons1[15]
o3	#/
o0	# + 
v0	#x[1]
o2	#*
n0.40000000000000013
v1	#x[2]
o54	#sumlist
4
n1
o2	#*
n0.40000000000000013
v2	#x[3]
o2	#*
n0.16000000000000011
v3	#x[4]
o2	#*
n0.06400000000000007
v4	#x[5]
C14	#cons1[16]
o3	#/
o0	# + 
v0	#x[1]
o2	#*
n0.5
v1	#x[2]
o54	#sumlist
4
n1
o2	#*
n0.5
v2	#x[3]
o2	#*
n0.25
v3	#x[4]
o2	#*
n0.125
v4	#x[5]
C15	#cons1[17]
o3	#/
o0	# + 
v0	#x[1]
o2	#*
n0.6000000000000001
v1	#x[2]
o54	#sumlist
4
n1
o2	#*
n0.6000000000000001
v2	#x[3]
o2	#*
n0.3600000000000001
v3	#x[4]
o2	#*
n0.21600000000000008
v4	#x[5]
C16	#cons1[18]
o3	#/
o0	# + 
v0	#x[1]
o2	#*
n0.7000000000000002
v1	#x[2]
o54	#sumlist
4
n1
o2	#*
n0.7000000000000002
v2	#x[3]
o2	#*
n0.49000000000000027
v3	#x[4]
o2	#*
n0.34300000000000025
v4	#x[5]
C17	#cons1[19]
o3	#/
o0	# + 
v0	#x[1]
o2	#*
n0.8
v1	#x[2]
o54	#sumlist
4
n1
o2	#*
n0.8
v2	#x[3]
o2	#*
n0.6400000000000001
v3	#x[4]
o2	#*
n0.5120000000000001
v4	#x[5]
C18	#cons1[20]
o3	#/
o0	# + 
v0	#x[1]
o2	#*
n0.9000000000000001
v1	#x[2]
o54	#sumlist
4
n1
o2	#*
n0.9000000000000001
v2	#x[3]
o2	#*
n0.8100000000000003
v3	#x[4]
o2	#*
n0.7290000000000003
v4	#x[5]
C19	#cons1[21]
o3	#/
o0	# + 
v0	#x[1]
v1	#x[2]
o54	#sumlist
4
n1
v2	#x[3]
v3	#x[4]
v4	#x[5]
C20	#cons2[1]
o16	#-
o3	#/
o0	# + 
v0	#x[1]
o16	#-
v1	#x[2]
o54	#sumlist
4
n1
o16	#-
v2	#x[3]
v3	#x[4]
o16	#-
v4	#x[5]
C21	#cons2[2]
o16	#-
o3	#/
o0	# + 
v0	#x[1]
o2	#*
n-0.9
v1	#x[2]
o54	#sumlist
4
n1
o2	#*
n-0.9
v2	#x[3]
o2	#*
n0.81
v3	#x[4]
o2	#*
n-0.7290000000000001
v4	#x[5]
C22	#cons2[3]
o16	#-
o3	#/
o0	# + 
v0	#x[1]
o2	#*
n-0.8
v1	#x[2]
o54	#sumlist
4
n1
o2	#*
n-0.8
v2	#x[3]
o2	#*
n0.6400000000000001
v3	#x[4]
o2	#*
n-0.5120000000000001
v4	#x[5]
C23	#cons2[4]
o16	#-
o3	#/
o0	# + 
v0	#x[1]
o2	#*
n-0.7
v1	#x[2]
o54	#sumlist
4
n1
o2	#*
n-0.7
v2	#x[3]
o2	#*
n0.48999999999999994
v3	#x[4]
o2	#*
n-0.3429999999999999
v4	#x[5]
C24	#cons2[5]
o16	#-
o3	#/
o0	# + 
v0	#x[1]
o2	#*
n-0.6
v1	#x[2]
o54	#sumlist
4
n1
o2	#*
n-0.6
v2	#x[3]
o2	#*
n0.36
v3	#x[4]
o2	#*
n-0.216
v4	#x[5]
C25	#cons2[6]
o16	#-
o3	#/
o0	# + 
v0	#x[1]
o2	#*
n-0.5
v1	#x[2]
o54	#sumlist
4
n1
o2	#*
n-0.5
v2	#x[3]
o2	#*
n0.25
v3	#x[4]
o2	#*
n-0.125
v4	#x[5]
C26	#cons2[7]
o16	#-
o3	#/
o0	# + 
v0	#x[1]
o2	#*
n-0.3999999999999999
v1	#x[2]
o54	#sumlist
4
n1
o2	#*
n-0.3999999999999999
v2	#x[3]
o2	#*
n0.15999999999999992
v3	#x[4]
o2	#*
n-0.06399999999999996
v4	#x[5]
C27	#cons2[8]
o16	#-
o3	#/
o0	# + 
v0	#x[1]
o2	#*
n-0.29999999999999993
v1	#x[2]
o54	#sumlist
4
n1
o2	#*
n-0.29999999999999993
v2	#x[3]
o2	#*
n0.08999999999999996
v3	#x[4]
o2	#*
n-0.02699999999999998
v4	#x[5]
C28	#cons2[9]
o16	#-
o3	#/
o0	# + 
v0	#x[1]
o2	#*
n-0.19999999999999996
v1	#x[2]
o54	#sumlist
4
n1
o2	#*
n-0.19999999999999996
v2	#x[3]
o2	#*
n0.03999999999999998
v3	#x[4]
o2	#*
n-0.007999999999999995
v4	#x[5]
C29	#cons2[10]
o16	#-
o3	#/
o0	# + 
v0	#x[1]
o2	#*
n-0.09999999999999998
v1	#x[2]
o54	#sumlist
4
n1
o2	#*
n-0.09999999999999998
v2	#x[3]
o2	#*
n0.009999999999999995
v3	#x[4]
o2	#*
n-0.0009999999999999994
v4	#x[5]
C30	#cons2[12]
o16	#-
o3	#/
o0	# + 
v0	#x[1]
o2	#*
n0.10000000000000009
v1	#x[2]
o54	#sumlist
4
n1
o2	#*
n0.10000000000000009
v2	#x[3]
o2	#*
n0.010000000000000018
v3	#x[4]
o2	#*
n0.0010000000000000026
v4	#x[5]
C31	#cons2[13]
o16	#-
o3	#/
o0	# + 
v0	#x[1]
o2	#*
n0.20000000000000018
v1	#x[2]
o54	#sumlist
4
n1
o2	#*
n0.20000000000000018
v2	#x[3]
o2	#*
n0.04000000000000007
v3	#x[4]
o2	#*
n0.008000000000000021
v4	#x[5]
C32	#cons2[14]
o16	#-
o3	#/
o0	# + 
v0	#x[1]
o2	#*
n0.30000000000000004
v1	#x[2]
o54	#sumlist
4
n1
o2	#*
n0.30000000000000004
v2	#x[3]
o2	#*
n0.09000000000000002
v3	#x[4]
o2	#*
n0.02700000000000001
v4	#x[5]
C33	#cons2[15]
o16	#-
o3	#/
o0	# + 
v0	#x[1]
o2	#*
n0.40000000000000013
v1	#x[2]
o54	#sumlist
4
n1
o2	#*
n0.40000000000000013
v2	#x[3]
o2	#*
n0.16000000000000011
v3	#x[4]
o2	#*
n0.06400000000000007
v4	#x[5]
C34	#cons2[16]
o16	#-
o3	#/
o0	# + 
v0	#x[1]
o2	#*
n0.5
v1	#x[2]
o54	#sumlist
4
n1
o2	#*
n0.5
v2	#x[3]
o2	#*
n0.25
v3	#x[4]
o2	#*
n0.125
v4	#x[5]
C35	#cons2[17]
o16	#-
o3	#/
o0	# + 
v0	#x[1]
o2	#*
n0.6000000000000001
v1	#x[2]
o54	#sumlist
4
n1
o2	#*
n0.6000000000000001
v2	#x[3]
o2	#*
n0.3600000000000001
v3	#x[4]
o2	#*
n0.21600000000000008
v4	#x[5]
C36	#cons2[18]
o16	#-
o3	#/
o0	# + 
v0	#x[1]
o2	#*
n0.7000000000000002
v1	#x[2]
o54	#sumlist
4
n1
o2	#*
n0.7000000000000002
v2	#x[3]
o2	#*
n0.49000000000000027
v3	#x[4]
o2	#*
n0.34300000000000025
v4	#x[5]
C37	#cons2[19]
o16	#-
o3	#/
o0	# + 
v0	#x[1]
o2	#*
n0.8
v1	#x[2]
o54	#sumlist
4
n1
o2	#*
n0.8
v2	#x[3]
o2	#*
n0.6400000000000001
v3	#x[4]
o2	#*
n0.5120000000000001
v4	#x[5]
C38	#cons2[20]
o16	#-
o3	#/
o0	# + 
v0	#x[1]
o2	#*
n0.9000000000000001
v1	#x[2]
o54	#sumlist
4
n1
o2	#*
n0.9000000000000001
v2	#x[3]
o2	#*
n0.8100000000000003
v3	#x[4]
o2	#*
n0.7290000000000003
v4	#x[5]
C39	#cons2[21]
o16	#-
o3	#/
o0	# + 
v0	#x[1]
v1	#x[2]
o54	#sumlist
4
n1
v2	#x[3]
v3	#x[4]
v4	#x[5]
C40	#cons1[11]
n0
C41	#cons2[11]
n0
O0 0	#f
n0
x6	# initial guess
0 0.5
1 0
2 0
3 0
4 0
5 0
r	#42 ranges (rhs's)
1 0.36787944117144233
1 0.4065696597405991
1 0.44932896411722156
1 0.4965853037914096
1 0.5488116360940265
1 0.6065306597126334
1 0.6703200460356393
1 0.7408182206817179
1 0.8187307530779819
1 0.9048374180359596
1 1.1051709180756477
1 1.22140275816017
1 1.3498588075760032
1 1.4918246976412706
1 1.6487212707001282
1 1.822118800390509
1 2.013752707470477
1 2.225540928492468
1 2.45960311115695
1 2.718281828459045
1 -0.36787944117144233
1 -0.4065696597405991
1 -0.44932896411722156
1 -0.4965853037914096
1 -0.5488116360940265
1 -0.6065306597126334
1 -0.6703200460356393
1 -0.7408182206817179
1 -0.8187307530779819
1 -0.9048374180359596
1 -1.1051709180756477
1 -1.22140275816017
1 -1.3498588075760032
1 -1.4918246976412706
1 -1.6487212707001282
1 -1.822118800390509
1 -2.013752707470477
1 -2.225540928492468
1 -2.45960311115695
1 -2.718281828459045
1 1
1 -1
b	#6 bounds (on variables)
0 -1.e8 1.e8
0 -1.e8 1.e8
0 -1.e8 1.e8
0 -1.e8 1.e8
0 -1.e8 1.e8
0 -1.e8 1.e8
k5	#intermediate Jacobian column lengths
42
82
122
162
202
J0 6
0 0
1 0
2 0
3 0
4 0
5 -1
J1 6
0 0
1 0
2 0
3 0
4 0
5 -1
J2 6
0 0
1 0
2 0
3 0
4 0
5 -1
J3 6
0 0
1 0
2 0
3 0
4 0
5 -1
J4 6
0 0
1 0
2 0
3 0
4 0
5 -1
J5 6
0 0
1 0
2 0
3 0
4 0
5 -1
J6 6
0 0
1 0
2 0
3 0
4 0
5 -1
J7 6
0 0
1 0
2 0
3 0
4 0
5 -1
J8 6
0 0
1 0
2 0
3 0
4 0
5 -1
J9 6
0 0
1 0
2 0
3 0
4 0
5 -1
J10 6
0 0
1 0
2 0
3 0
4 0
5 -1
J11 6
0 0
1 0
2 0
3 0
4 0
5 -1
J12 6
0 0
1 0
2 0
3 0
4 0
5 -1
J13 6
0 0
1 0
2 0
3 0
4 0
5 -1
J14 6
0 0
1 0
2 0
3 0
4 0
5 -1
J15 6
0 0
1 0
2 0
3 0
4 0
5 -1
J16 6
0 0
1 0
2 0
3 0
4 0
5 -1
J17 6
0 0
1 0
2 0
3 0
4 0
5 -1
J18 6
0 0
1 0
2 0
3 0
4 0
5 -1
J19 6
0 0
1 0
2 0
3 0
4 0
5 -1
J20 6
0 0
1 0
2 0
3 0
4 0
5 -1
J21 6
0 0
1 0
2 0
3 0
4 0
5 -1
J22 6
0 0
1 0
2 0
3 0
4 0
5 -1
J23 6
0 0
1 0
2 0
3 0
4 0
5 -1
J24 6
0 0
1 0
2 0
3 0
4 0
5 -1
J25 6
0 0
1 0
2 0
3 0
4 0
5 -1
J26 6
0 0
1 0
2 0
3 0
4 0
5 -1
J27 6
0 0
1 0
2 0
3 0
4 0
5 -1
J28 6
0 0
1 0
2 0
3 0
4 0
5 -1
J29 6
0 0
1 0
2 0
3 0
4 0
5 -1
J30 6
0 0
1 0
2 0
3 0
4 0
5 -1
J31 6
0 0
1 0
2 0
3 0
4 0
5 -1
J32 6
0 0
1 0
2 0
3 0
4 0
5 -1
J33 6
0 0
1 0
2 0
3 0
4 0
5 -1
J34 6
0 0
1 0
2 0
3 0
4 0
5 -1
J35 6
0 0
1 0
2 0
3 0
4 0
5 -1
J36 6
0 0
1 0
2 0
3 0
4 0
5 -1
J37 6
0 0
1 0
2 0
3 0
4 0
5 -1
J38 6
0 0
1 0
2 0
3 0
4 0
5 -1
J39 6
0 0
1 0
2 0
3 0
4 0
5 -1
J40 2
0 1
5 -1
J41 2
0 -1
5 -1
G0 1
5 1
